#######################################
### Exact MIP solver for the HHCRSP ###
#######################################
-- Instance file: new-instances/HHCRSP_100_20_41_1.0_R_RC.txt
-- Max threads: 4
-- Time limit: 999999 seconds
-- Use initial solution: No
Trivial flow violations prevented generating 46495 variables.
Model exported.
Version identifier: 20.1.0.0 | 2020-11-10 | 9bedb6d68
CPXPARAM_Threads                                 4
CPXPARAM_TimeLimit                               999999
Parallel mode: deterministic, using up to 4 threads for concurrent optimization:
 * Starting dual Simplex on 1 thread...
 * Starting Barrier on 3 threads...
Tried aggregator 1 time.
LP Presolve eliminated 4932 rows and 1028 columns.
Reduced LP has 41998 rows, 40309 columns, and 458450 nonzeros.
Presolve time = 0.40 sec. (121.60 ticks)
Symmetry aggregator did 41635 additional substitutions.
Initializing dual steep norms . . .

Iteration log . . .
Iteration:     1   Dual objective     =             0.666667

Dual crossover.
  Dual:  Fixing 193 variables.
      192 DMoves:  Infeasibility  5.25135541e-14  Objective  1.72333333e+02
        0 DMoves:  Infeasibility  1.92068634e-14  Objective  1.72333333e+02
  Dual:  Pushed 17, exchanged 176.
  Primal:  Fixing 100 variables.
       99 PMoves:  Infeasibility  4.44089210e-16  Objective  1.72333333e+02
        0 PMoves:  Infeasibility  6.66133815e-16  Objective  1.72333333e+02
  Primal:  Pushed 52, exchanged 48.

Dual simplex solved model.


Solution status from MIP model:
-- Processing time: 0.64 sec.
-- Memory used: 97.3311 MB
-- Best bound: inf
-- Obj value: 172.333
-- Gap: inf%
-- Total distance: 517
-- Total tardiness: 0
-- Largest tardiness: 0
